objective value:                              1815840
t_x21                                               1 	(obj:0)
t_x22                                               1 	(obj:0)
t_x61                                               1 	(obj:0)
t_x81                                               1 	(obj:0)
t_x82                                               1 	(obj:0)
t_x102                                              1 	(obj:0)
t_x141                                              1 	(obj:0)
t_x161                                              1 	(obj:0)
t_x181                                              1 	(obj:0)
t_x182                                              1 	(obj:0)
t_x220                                              1 	(obj:0)
t_x241                                              1 	(obj:0)
t_x261                                              1 	(obj:0)
t_x281                                              1 	(obj:0)
t_x301                                              1 	(obj:0)
t_x320                                              1 	(obj:0)
t_x341                                              1 	(obj:0)
t_x342                                              1 	(obj:0)
t_x381                                              1 	(obj:0)
t_x401                                              1 	(obj:0)
t_x402                                              1 	(obj:0)
t_x422                                              1 	(obj:0)
t_x462                                              1 	(obj:0)
t_x501                                              1 	(obj:0)
t_x502                                              1 	(obj:0)
t_x522                                              1 	(obj:0)
t_x542                                              1 	(obj:0)
t_x581                                              1 	(obj:0)
t_x601                                              1 	(obj:0)
t_x612                                              1 	(obj:0)
t_x622                                              1 	(obj:0)
t_x648                                              1 	(obj:0)
t_x681                                              1 	(obj:0)
t_x701                                              1 	(obj:0)
t_x702                                              1 	(obj:0)
t_x741                                              1 	(obj:0)
t_x761                                              1 	(obj:0)
t_x781                                              1 	(obj:0)
t_x801                                              1 	(obj:0)
t_x802                                              1 	(obj:0)
t_x822                                              1 	(obj:0)
t_x842                                              1 	(obj:0)
t_x862                                              1 	(obj:0)
t_x882                                              1 	(obj:0)
t_x902                                              1 	(obj:0)
t_x981                                              1 	(obj:0)
t_x982                                              1 	(obj:0)
t_x1002                                             1 	(obj:0)
t_x1041                                             1 	(obj:0)
t_x1061                                             1 	(obj:0)
t_x1080                                             1 	(obj:0)
t_x1101                                             1 	(obj:0)
t_x1120                                             1 	(obj:0)
t_x1122                                             1 	(obj:0)
t_x1161                                             1 	(obj:0)
t_x1173                                             1 	(obj:0)
t_x1182                                             1 	(obj:0)
t_x1221                                             1 	(obj:0)
t_x1241                                             1 	(obj:0)
t_x1281                                             1 	(obj:0)
t_x1301                                             1 	(obj:0)
t_x1321                                             1 	(obj:0)
t_x1322                                             1 	(obj:0)
t_x1361                                             1 	(obj:0)
t_x1362                                             1 	(obj:0)
t_x1401                                             1 	(obj:0)
t_x1421                                             1 	(obj:0)
t_x1461                                             1 	(obj:0)
t_x1481                                             1 	(obj:0)
t_x1482                                             1 	(obj:0)
t_x1521                                             1 	(obj:0)
t_x1522                                             1 	(obj:0)
t_x1561                                             1 	(obj:0)
t_x1581                                             1 	(obj:0)
t_x1600                                             1 	(obj:0)
t_x1602                                             1 	(obj:0)
t_x1640                                             1 	(obj:0)
t_x1661                                             1 	(obj:0)
t_x1681                                             1 	(obj:0)
t_x1682                                             1 	(obj:0)
t_x1721                                             1 	(obj:0)
t_x1722                                             1 	(obj:0)
t_x1742                                             1 	(obj:0)
t_x1781                                             1 	(obj:0)
t_x1801                                             1 	(obj:0)
t_x1821                                             1 	(obj:0)
t_x1822                                             1 	(obj:0)
t_x1842                                             1 	(obj:0)
t_x1862                                             1 	(obj:0)
t_x1900                                             1 	(obj:0)
t_x1902                                             1 	(obj:0)
t_x1940                                             1 	(obj:0)
t_x1942                                             1 	(obj:0)
t_x1962                                             1 	(obj:0)
t_x2001                                             1 	(obj:0)
t_x2021                                             1 	(obj:0)
t_x2043                                             1 	(obj:0)
t_x2081                                             1 	(obj:0)
t_x2101                                             1 	(obj:0)
t_x2102                                             1 	(obj:0)
t_x2140                                             1 	(obj:0)
t_x2161                                             1 	(obj:0)
t_x2181                                             1 	(obj:0)
t_x2182                                             1 	(obj:0)
t_x2221                                             1 	(obj:0)
t_x2222                                             1 	(obj:0)
t_x2261                                             1 	(obj:0)
t_x2262                                             1 	(obj:0)
t_x2282                                             1 	(obj:0)
t_x2321                                             1 	(obj:0)
t_x2322                                             1 	(obj:0)
t_x2361                                             1 	(obj:0)
t_x2381                                             1 	(obj:0)
t_x2382                                             1 	(obj:0)
t_x2402                                             1 	(obj:0)
t_x2423                                             1 	(obj:0)
t_x2461                                             1 	(obj:0)
t_x2475                                             1 	(obj:0)
t_x2482                                             1 	(obj:0)
t_x2521                                             1 	(obj:0)
t_x2542                                             1 	(obj:0)
t_x2581                                             1 	(obj:0)
t_x2582                                             1 	(obj:0)
t_x2621                                             1 	(obj:0)
t_x2641                                             1 	(obj:0)
t_x2642                                             1 	(obj:0)
t_x2662                                             1 	(obj:0)
t_x2701                                             1 	(obj:0)
t_x2702                                             1 	(obj:0)
t_x2722                                             1 	(obj:0)
t_x2761                                             1 	(obj:0)
t_x2781                                             1 	(obj:0)
t_x2801                                             1 	(obj:0)
t_x2821                                             1 	(obj:0)
t_x2861                                             1 	(obj:0)
t_x2881                                             1 	(obj:0)
t_x2901                                             1 	(obj:0)
t_x2921                                             1 	(obj:0)
t_x2941                                             1 	(obj:0)
t_x2959                                             1 	(obj:0)
t_x2981                                             1 	(obj:0)
t_x3001                                             1 	(obj:0)
t_x3002                                             1 	(obj:0)
t_x3041                                             1 	(obj:0)
t_x3042                                             1 	(obj:0)
t_x3062                                             1 	(obj:0)
t_x3101                                             1 	(obj:0)
t_x3121                                             1 	(obj:0)
t_x3122                                             1 	(obj:0)
t_x3142                                             1 	(obj:0)
t_x3181                                             1 	(obj:0)
t_x3182                                             1 	(obj:0)
t_x3221                                             1 	(obj:0)
t_x3241                                             1 	(obj:0)
t_x3261                                             1 	(obj:0)
t_x3262                                             1 	(obj:0)
t_x3300                                             1 	(obj:0)
t_x3302                                             1 	(obj:0)
t_x3340                                             1 	(obj:0)
t_x3342                                             1 	(obj:0)
t_x3364                                             1 	(obj:0)
t_x3382                                             1 	(obj:0)
t_x3421                                             1 	(obj:0)
t_x3441                                             1 	(obj:0)
t_x3443                                             1 	(obj:0)
t_x3482                                             1 	(obj:0)
t_x3521                                             1 	(obj:0)
t_x3541                                             1 	(obj:0)
t_x3581                                             1 	(obj:0)
t_x3618                                             1 	(obj:0)
t_x3641                                             1 	(obj:0)
t_x3642                                             1 	(obj:0)
t_x3701                                             1 	(obj:0)
t_x3721                                             1 	(obj:0)
t_x3723                                             1 	(obj:0)
t_x3761                                             1 	(obj:0)
t_x3762                                             1 	(obj:0)
t_x3782                                             1 	(obj:0)
t_x3821                                             1 	(obj:0)
t_x3841                                             1 	(obj:0)
t_x3842                                             1 	(obj:0)
t_x3862                                             1 	(obj:0)
t_x3882                                             1 	(obj:0)
t_x3941                                             1 	(obj:0)
t_x3961                                             1 	(obj:0)
t_x3981                                             1 	(obj:0)
t_x3982                                             1 	(obj:0)
t_x4021                                             1 	(obj:0)
t_x4041                                             1 	(obj:0)
t_x4042                                             1 	(obj:0)
t_x4062                                             1 	(obj:0)
t_x4101                                             1 	(obj:0)
t_x4102                                             1 	(obj:0)
t_x4122                                             1 	(obj:0)
t_x4142                                             1 	(obj:0)
t_x4180                                             1 	(obj:0)
t_x4201                                             1 	(obj:0)
t_x4202                                             1 	(obj:0)
t_x4240                                             1 	(obj:0)
t_x4281                                             1 	(obj:0)
t_x4301                                             1 	(obj:0)
t_x4341                                             1 	(obj:0)
t_x4342                                             1 	(obj:0)
t_x4362                                             1 	(obj:0)
t_x4398                                             1 	(obj:0)
t_x4421                                             1 	(obj:0)
t_x4441                                             1 	(obj:0)
t_x4442                                             1 	(obj:0)
t_x4481                                             1 	(obj:0)
t_x4501                                             1 	(obj:0)
t_x4502                                             1 	(obj:0)
t_x4541                                             1 	(obj:0)
t_x4542                                             1 	(obj:0)
t_x4601                                             1 	(obj:0)
t_x4602                                             1 	(obj:0)
t_x4622                                             1 	(obj:0)
t_x4643                                             1 	(obj:0)
t_x4681                                             1 	(obj:0)
t_x4701                                             1 	(obj:0)
t_x4702                                             1 	(obj:0)
t_x4741                                             1 	(obj:0)
t_x4742                                             1 	(obj:0)
t_x4781                                             1 	(obj:0)
t_x4782                                             1 	(obj:0)
t_x4803                                             1 	(obj:0)
t_x4841                                             1 	(obj:0)
t_x4861                                             1 	(obj:0)
t_x4882                                             1 	(obj:0)
t_x4902                                             1 	(obj:0)
t_x4922                                             1 	(obj:0)
t_x4959                                             1 	(obj:0)
t_x4979                                             1 	(obj:0)
t_x4982                                             1 	(obj:0)
t_x5002                                             1 	(obj:0)
t_x5022                                             1 	(obj:0)
t_x5042                                             1 	(obj:0)
t_x5062                                             1 	(obj:0)
t_x5101                                             1 	(obj:0)
t_x5102                                             1 	(obj:0)
t_x5141                                             1 	(obj:0)
t_x5161                                             1 	(obj:0)
t_x5162                                             1 	(obj:0)
t_x5200                                             1 	(obj:0)
t_x5221                                             1 	(obj:0)
t_x5222                                             1 	(obj:0)
t_x5242                                             1 	(obj:0)
t_x5281                                             1 	(obj:0)
t_x5282                                             1 	(obj:0)
t_x5320                                             1 	(obj:0)
t_x5322                                             1 	(obj:0)
t_x5342                                             1 	(obj:0)
t_x5362                                             1 	(obj:0)
t_x5382                                             1 	(obj:0)
t_x5402                                             1 	(obj:0)
t_x5441                                             1 	(obj:0)
t_x5460                                             1 	(obj:0)
t_x5480                                             1 	(obj:0)
t_x5501                                             1 	(obj:0)
t_x5521                                             1 	(obj:0)
t_x5540                                             1 	(obj:0)
t_x5542                                             1 	(obj:0)
t_x5578                                             1 	(obj:0)
t_x5601                                             1 	(obj:0)
t_x5621                                             1 	(obj:0)
t_x5622                                             1 	(obj:0)
t_x5661                                             1 	(obj:0)
t_x5662                                             1 	(obj:0)
t_x5701                                             1 	(obj:0)
t_x5702                                             1 	(obj:0)
t_x5740                                             1 	(obj:0)
t_x5782                                             1 	(obj:0)
t_x5802                                             1 	(obj:0)
t_x5822                                             1 	(obj:0)
t_x5842                                             1 	(obj:0)
t_x5881                                             1 	(obj:0)
t_x5901                                             1 	(obj:0)
t_x5921                                             1 	(obj:0)
t_x5922                                             1 	(obj:0)
t_x5962                                             1 	(obj:0)
t_x6001                                             1 	(obj:0)
t_x6002                                             1 	(obj:0)
t_x6041                                             1 	(obj:0)
t_x6061                                             1 	(obj:0)
t_x6062                                             1 	(obj:0)
t_x6101                                             1 	(obj:0)
t_x6121                                             1 	(obj:0)
t_x6201                                             1 	(obj:0)
t_x6220                                             1 	(obj:0)
t_x6240                                             1 	(obj:0)
t_x6261                                             1 	(obj:0)
t_x6281                                             1 	(obj:0)
t_x6301                                             1 	(obj:0)
t_x6302                                             1 	(obj:0)
t_x6322                                             1 	(obj:0)
t_x6342                                             1 	(obj:0)
t_x6382                                             1 	(obj:0)
t_x6419                                             1 	(obj:0)
t_x6442                                             1 	(obj:0)
t_x6462                                             1 	(obj:0)
t_x6497                                             1 	(obj:0)
t_x6520                                             1 	(obj:0)
t_x6540                                             1 	(obj:0)
t_x6560                                             1 	(obj:0)
t_x6581                                             1 	(obj:0)
t_x6582                                             1 	(obj:0)
t_x6621                                             1 	(obj:0)
t_x1                                          1815840 	(obj:1)
